data;
param nombreJob := 6;
param nombreRessource := 3;
param duree := 1 6 2 2 3 8 4 10 5 9 6 9;
param capaciteRessource := 1 5 2 8 3 15;
param besoinRessource : 1 2 3 :=
                    1   2 6 10
                    2   3 1 5
                    3   2 6 9
                    4   4 5 6
                    5   1 2 5
                    6   4 7 1;
end;

